param n := 30
;

param delta := 1.5
;

param coordX [*] :=
 0 206    4 570    8   1   12 186   16 220   20  45   24 366   28  23
 1 295    5 362    9 590   13 357   17 141   21  46   25 196   29 496
 2 494    6 331   10 508   14 563   18 241   22 126   26 374   30   9
 3 382    7 204   11 524   15 504   19 327   23 226   27 155
;

param coordY [*] :=
 0 578    4 244    8 479   12 530   16 189   20  57   24 202   28 221
 1 596    5 170    9 441   13 564   17 409   21 387   25 368   29 438
 2 574    6 255   10 313   14 586   18 286   22 343   26  40   30 599
 3 359    7 100   11 383   15  96   19 449   23 380   27 434
;